c User generated cnf file
p cnf 15 58
5 -4 1 0 
7 12 -7 0 
1 -12 1 0 
14 -9 9 0 
15 -15 10 0 
3 5 -4 0 
1 -10 12 0 
14 -5 6 0 
4 2 -2 0 
7 -11 8 0 
13 -6 5 0 
10 -1 8 0 
4 -12 2 0 
8 6 -2 0 
10 6 -3 0 
12 -15 1 0 
9 14 -3 0 
12 -15 12 0 
5 11 -5 0 
7 7 -6 0 
4 -12 4 0 
14 13 -13 0 
12 -6 3 0 
13 -1 10 0 
7 -8 1 0 
9 -1 8 0 
5 -6 9 0 
2 14 -14 0 
12 6 -6 0 
3 -5 3 0 
4 10 -8 0 
4 9 -15 0 
7 1 -7 0 
14 -14 11 0 
3 13 -11 0 
12 -15 6 0 
4 3 -6 0 
4 13 -2 0 
1 3 -4 0 
6 2 -7 0 
10 13 -12 0 
4 -14 7 0 
8 -2 1 0 
15 15 -5 0 
10 -11 14 0 
1 3 -2 0 
11 -3 3 0 
9 -13 12 0 
5 7 -14 0 
6 14 -12 0 
6 -11 14 0 
4 14 -3 0 
1 4 -14 0 
12 9 -4 0 
9 -13 10 0 
15 -9 9 0 
13 10 -1 0 
8 12 -13 0 
